(set-info :original "/var/folders/xz/sgqbj6yn0yv_1mpy6_jqympm0000gn/T/sea-oyttcc/array_of_struct_ptr_cond_init.pp.ms.o.bc")
(set-info :authors "SeaHorn v.0.1.0-rc3")
(declare-rel verifier.error (Bool Bool Bool ))
(declare-rel user_read@_sm ((Array Int Int) (Array Int Int) ))
(declare-rel user_read@.split ((Array Int Int) (Array Int Int) Int ))
(declare-rel user_read (Bool Bool Bool (Array Int Int) (Array Int Int) (Array Int Int) (Array Int Int) Int ))
(declare-rel __VERIFIER_assert@_sm ((Array Int Int) (Array Int Int) Int ))
(declare-rel __VERIFIER_assert@_call2 ((Array Int Int) (Array Int Int) Int ))
(declare-rel __VERIFIER_assert (Bool Bool Bool (Array Int Int) (Array Int Int) (Array Int Int) (Array Int Int) Int ))
(declare-rel main@entry ((Array Int Int) (Array Int Int) (Array Int Int) ))
(declare-rel main@_bb (Int Int (Array Int Int) (Array Int Int) (Array Int Int) ))
(declare-rel main@_bb16 (Int Int (Array Int Int) (Array Int Int) ))
(declare-rel main@verifier.error.split ())
(declare-var user_read@%sm_0 (Array Int Int) )
(declare-var user_read@%sm1_0 (Array Int Int) )
(declare-var user_read@%_br_0 Int )
(declare-var user_read@_sm_0 Bool )
(declare-var user_read@.split_0 Bool )
(declare-var __VERIFIER_assert@%sm_0 (Array Int Int) )
(declare-var __VERIFIER_assert@%sm1_0 (Array Int Int) )
(declare-var __VERIFIER_assert@%_call_0 Bool )
(declare-var __VERIFIER_assert@arg.0_0 Int )
(declare-var __VERIFIER_assert@_sm_0 Bool )
(declare-var __VERIFIER_assert@_call2_0 Bool )
(declare-var main@%_11_0 Int )
(declare-var main@%sm8_0 (Array Int Int) )
(declare-var main@%malloc13.i_0 Int )
(declare-var main@%_7_0 Int )
(declare-var main@%_9_0 Int )
(declare-var main@%shadow.mem.0.1_2 (Array Int Int) )
(declare-var main@%sh_0 (Array Int Int) )
(declare-var main@%_3_0 Int )
(declare-var main@%_4_0 Int )
(declare-var main@%_5_0 Bool )
(declare-var main@%_30_0 Bool )
(declare-var main@%_23_0 Int )
(declare-var main@%_24_0 Int )
(declare-var main@%_25_0 Bool )
(declare-var main@%_27_0 Bool )
(declare-var main@%_17_0 Int )
(declare-var main@%_19_0 Int )
(declare-var main@%_20_0 Int )
(declare-var main@%_21_0 Bool )
(declare-var main@%shadow.mem.0.3_2 (Array Int Int) )
(declare-var main@%shadow.mem.8.2_2 (Array Int Int) )
(declare-var main@%_15_0 Bool )
(declare-var main@%_1_0 Bool )
(declare-var main@%sm10_0 (Array Int Int) )
(declare-var main@%sm9_0 (Array Int Int) )
(declare-var main@entry_0 Bool )
(declare-var @a_0 Int )
(declare-var main@%sm_0 (Array Int Int) )
(declare-var main@_bb_0 Bool )
(declare-var main@%shadow.mem.0.0_0 (Array Int Int) )
(declare-var main@%shadow.mem.8.0_0 (Array Int Int) )
(declare-var main@%.0.i_0 Int )
(declare-var main@%shadow.mem.0.0_1 (Array Int Int) )
(declare-var main@%shadow.mem.8.0_1 (Array Int Int) )
(declare-var main@%.0.i_1 Int )
(declare-var main@_bb11_0 Bool )
(declare-var main@%malloc2.i_0 Int )
(declare-var main@%sh1_0 (Array Int Int) )
(declare-var main@%sm2_0 (Array Int Int) )
(declare-var main@_bb13_0 Bool )
(declare-var main@%sm4_0 (Array Int Int) )
(declare-var main@_bb12_0 Bool )
(declare-var main@%sm3_0 (Array Int Int) )
(declare-var main@_bb14_0 Bool )
(declare-var main@%shadow.mem.0.1_0 (Array Int Int) )
(declare-var main@%shadow.mem.0.1_1 (Array Int Int) )
(declare-var main@%sm5_0 (Array Int Int) )
(declare-var main@%_12_0 Int )
(declare-var main@_bb_1 Bool )
(declare-var main@%shadow.mem.0.0_2 (Array Int Int) )
(declare-var main@%shadow.mem.8.0_2 (Array Int Int) )
(declare-var main@%.0.i_2 Int )
(declare-var main@_bb15_0 Bool )
(declare-var main@_bb16_0 Bool )
(declare-var main@%shadow.mem.0.2_0 (Array Int Int) )
(declare-var main@%shadow.mem.8.1_0 (Array Int Int) )
(declare-var main@%.1.i_0 Int )
(declare-var main@%shadow.mem.0.2_1 (Array Int Int) )
(declare-var main@%shadow.mem.8.1_1 (Array Int Int) )
(declare-var main@%.1.i_1 Int )
(declare-var main@_bb17_0 Bool )
(declare-var main@%_18_0 Int )
(declare-var main@_bb18_0 Bool )
(declare-var main@%_26_0 Int )
(declare-var main@postcall_0 Bool )
(declare-var main@%sh6_0 (Array Int Int) )
(declare-var main@%sh7_0 (Array Int Int) )
(declare-var main@_bb19_0 Bool )
(declare-var |tuple(main@_bb17_0, main@_bb19_0)| Bool )
(declare-var main@%shadow.mem.0.3_0 (Array Int Int) )
(declare-var main@%shadow.mem.8.2_0 (Array Int Int) )
(declare-var main@%shadow.mem.0.3_1 (Array Int Int) )
(declare-var main@%shadow.mem.8.2_1 (Array Int Int) )
(declare-var main@%_29_0 Int )
(declare-var main@_bb16_1 Bool )
(declare-var main@%shadow.mem.0.2_2 (Array Int Int) )
(declare-var main@%shadow.mem.8.1_2 (Array Int Int) )
(declare-var main@%.1.i_2 Int )
(declare-var main@precall_0 Bool )
(declare-var main@__VERIFIER_assert_0 Bool )
(declare-var main@_bb20_0 Bool )
(declare-var main@verifier.error_0 Bool )
(declare-var main@verifier.error.split_0 Bool )
(rule (verifier.error false false false))
(rule (verifier.error false true true))
(rule (verifier.error true false true))
(rule (verifier.error true true true))
(rule (user_read true
           true
           true
           user_read@%sm_0
           user_read@%sm_0
           user_read@%sm1_0
           user_read@%sm1_0
           user_read@%_br_0))
(rule (user_read false
           true
           true
           user_read@%sm_0
           user_read@%sm_0
           user_read@%sm1_0
           user_read@%sm1_0
           user_read@%_br_0))
(rule (user_read false
           false
           false
           user_read@%sm_0
           user_read@%sm_0
           user_read@%sm1_0
           user_read@%sm1_0
           user_read@%_br_0))
(rule (user_read@_sm user_read@%sm_0 user_read@%sm1_0))
(rule (=> (and (user_read@_sm user_read@%sm_0 user_read@%sm1_0)
         true
         (=> user_read@.split_0 (and user_read@.split_0 user_read@_sm_0))
         user_read@.split_0)
    (user_read@.split user_read@%sm_0 user_read@%sm1_0 user_read@%_br_0)))
(rule (=> (user_read@.split user_read@%sm_0 user_read@%sm1_0 user_read@%_br_0)
    (user_read true
               false
               false
               user_read@%sm_0
               user_read@%sm_0
               user_read@%sm1_0
               user_read@%sm1_0
               user_read@%_br_0)))
(rule (__VERIFIER_assert
  true
  true
  true
  __VERIFIER_assert@%sm_0
  __VERIFIER_assert@%sm_0
  __VERIFIER_assert@%sm1_0
  __VERIFIER_assert@%sm1_0
  __VERIFIER_assert@arg.0_0))
(rule (__VERIFIER_assert
  false
  true
  true
  __VERIFIER_assert@%sm_0
  __VERIFIER_assert@%sm_0
  __VERIFIER_assert@%sm1_0
  __VERIFIER_assert@%sm1_0
  __VERIFIER_assert@arg.0_0))
(rule (__VERIFIER_assert
  false
  false
  false
  __VERIFIER_assert@%sm_0
  __VERIFIER_assert@%sm_0
  __VERIFIER_assert@%sm1_0
  __VERIFIER_assert@%sm1_0
  __VERIFIER_assert@arg.0_0))
(rule (__VERIFIER_assert@_sm
  __VERIFIER_assert@%sm_0
  __VERIFIER_assert@%sm1_0
  __VERIFIER_assert@arg.0_0))
(rule (=> (and (__VERIFIER_assert@_sm
           __VERIFIER_assert@%sm_0
           __VERIFIER_assert@%sm1_0
           __VERIFIER_assert@arg.0_0)
         true
         (= __VERIFIER_assert@%_call_0 (= __VERIFIER_assert@arg.0_0 0))
         (not __VERIFIER_assert@%_call_0)
         (=> __VERIFIER_assert@_call2_0
             (and __VERIFIER_assert@_call2_0 __VERIFIER_assert@_sm_0))
         __VERIFIER_assert@_call2_0)
    (__VERIFIER_assert@_call2
      __VERIFIER_assert@%sm_0
      __VERIFIER_assert@%sm1_0
      __VERIFIER_assert@arg.0_0)))
(rule (=> (__VERIFIER_assert@_call2
      __VERIFIER_assert@%sm_0
      __VERIFIER_assert@%sm1_0
      __VERIFIER_assert@arg.0_0)
    (__VERIFIER_assert
      true
      false
      false
      __VERIFIER_assert@%sm_0
      __VERIFIER_assert@%sm_0
      __VERIFIER_assert@%sm1_0
      __VERIFIER_assert@%sm1_0
      __VERIFIER_assert@arg.0_0)))
(rule (main@entry main@%sm8_0 main@%sm10_0 main@%sm9_0))
(rule (=> (and (main@entry main@%sm8_0 main@%sm10_0 main@%sm9_0)
         true
         (= main@%sm_0 main@%sm10_0)
         (=> main@_bb_0 (and main@_bb_0 main@entry_0))
         (=> (and main@_bb_0 main@entry_0)
             (= main@%shadow.mem.0.0_0 main@%sm9_0))
         (=> (and main@_bb_0 main@entry_0)
             (= main@%shadow.mem.8.0_0 main@%sm_0))
         (=> (and main@_bb_0 main@entry_0) (= main@%.0.i_0 0))
         (=> (and main@_bb_0 main@entry_0)
             (= main@%shadow.mem.0.0_1 main@%shadow.mem.0.0_0))
         (=> (and main@_bb_0 main@entry_0)
             (= main@%shadow.mem.8.0_1 main@%shadow.mem.8.0_0))
         (=> (and main@_bb_0 main@entry_0) (= main@%.0.i_1 main@%.0.i_0))
         main@_bb_0)
    (main@_bb @a_0
              main@%.0.i_1
              main@%shadow.mem.0.0_1
              main@%shadow.mem.8.0_1
              main@%sm8_0)))
(rule (let ((a!1 (= main@%_4_0 (+ (+ main@%malloc2.i_0 (* 0 8)) 4)))
      (a!2 (= main@%_9_0 (+ (+ main@%malloc2.i_0 (* 0 8)) 0)))
      (a!3 (= main@%_7_0 (+ (+ main@%malloc2.i_0 (* 0 8)) 0)))
      (a!4 (=> main@_bb14_0
               (= main@%_11_0 (+ @a_0 (* 0 400000) (* main@%.0.i_0 4))))))
(let ((a!5 (and (main@_bb @a_0
                          main@%.0.i_0
                          main@%shadow.mem.0.0_0
                          main@%shadow.mem.8.0_0
                          main@%sm8_0)
                true
                (= main@%_1_0 (< main@%.0.i_0 100000))
                (=> main@_bb11_0 (and main@_bb11_0 main@_bb_0))
                (=> (and main@_bb11_0 main@_bb_0) main@%_1_0)
                (=> main@_bb11_0 (> main@%malloc2.i_0 0))
                (user_read main@_bb11_0
                           false
                           false
                           main@%shadow.mem.0.0_0
                           main@%sh_0
                           main@%shadow.mem.8.0_0
                           main@%sh1_0
                           main@%_3_0)
                (=> main@_bb11_0 a!1)
                (=> main@_bb11_0 (or (<= main@%malloc2.i_0 0) (> main@%_4_0 0)))
                (=> main@_bb11_0 (> main@%malloc2.i_0 0))
                (=> main@_bb11_0
                    (= main@%sm2_0 (store main@%sh_0 main@%_4_0 main@%_3_0)))
                (=> main@_bb11_0 (= main@%_5_0 (= main@%_3_0 1)))
                (=> main@_bb13_0 (and main@_bb13_0 main@_bb11_0))
                (=> (and main@_bb13_0 main@_bb11_0) (not main@%_5_0))
                (=> main@_bb13_0 a!2)
                (=> main@_bb13_0 (or (<= main@%malloc2.i_0 0) (> main@%_9_0 0)))
                (=> main@_bb13_0
                    (= main@%sm4_0 (store main@%sm2_0 main@%_9_0 0)))
                (=> main@_bb12_0 (and main@_bb12_0 main@_bb11_0))
                (=> (and main@_bb12_0 main@_bb11_0) main@%_5_0)
                (=> main@_bb12_0 (> main@%malloc13.i_0 0))
                (=> main@_bb12_0 a!3)
                (=> main@_bb12_0 (or (<= main@%malloc2.i_0 0) (> main@%_7_0 0)))
                (=> main@_bb12_0
                    (= main@%sm3_0
                       (store main@%sm2_0 main@%_7_0 main@%malloc13.i_0)))
                (=> main@_bb14_0
                    (or (and main@_bb14_0 main@_bb13_0)
                        (and main@_bb14_0 main@_bb12_0)))
                (=> (and main@_bb14_0 main@_bb13_0)
                    (= main@%shadow.mem.0.1_0 main@%sm4_0))
                (=> (and main@_bb14_0 main@_bb12_0)
                    (= main@%shadow.mem.0.1_1 main@%sm3_0))
                (=> (and main@_bb14_0 main@_bb13_0)
                    (= main@%shadow.mem.0.1_2 main@%shadow.mem.0.1_0))
                (=> (and main@_bb14_0 main@_bb12_0)
                    (= main@%shadow.mem.0.1_2 main@%shadow.mem.0.1_1))
                a!4
                (=> main@_bb14_0 (or (<= @a_0 0) (> main@%_11_0 0)))
                (=> main@_bb14_0 (> @a_0 0))
                (=> main@_bb14_0
                    (= main@%sm5_0
                       (store main@%sh1_0 main@%_11_0 main@%malloc2.i_0)))
                (=> main@_bb14_0 (= main@%_12_0 (+ main@%.0.i_0 1)))
                (=> main@_bb_1 (and main@_bb_1 main@_bb14_0))
                (=> (and main@_bb_1 main@_bb14_0)
                    (= main@%shadow.mem.0.0_1 main@%shadow.mem.0.1_2))
                (=> (and main@_bb_1 main@_bb14_0)
                    (= main@%shadow.mem.8.0_1 main@%sm5_0))
                (=> (and main@_bb_1 main@_bb14_0) (= main@%.0.i_1 main@%_12_0))
                (=> (and main@_bb_1 main@_bb14_0)
                    (= main@%shadow.mem.0.0_2 main@%shadow.mem.0.0_1))
                (=> (and main@_bb_1 main@_bb14_0)
                    (= main@%shadow.mem.8.0_2 main@%shadow.mem.8.0_1))
                (=> (and main@_bb_1 main@_bb14_0) (= main@%.0.i_2 main@%.0.i_1))
                main@_bb_1)))
  (=> a!5
      (main@_bb @a_0
                main@%.0.i_2
                main@%shadow.mem.0.0_2
                main@%shadow.mem.8.0_2
                main@%sm8_0)))))
(rule (=> (and (main@_bb @a_0
                   main@%.0.i_0
                   main@%shadow.mem.0.0_0
                   main@%shadow.mem.8.0_0
                   main@%sm8_0)
         true
         (= main@%_1_0 (< main@%.0.i_0 100000))
         (=> main@_bb15_0 (and main@_bb15_0 main@_bb_0))
         (=> (and main@_bb15_0 main@_bb_0) (not main@%_1_0))
         (=> main@_bb16_0 (and main@_bb16_0 main@_bb15_0))
         (=> (and main@_bb16_0 main@_bb15_0)
             (= main@%shadow.mem.0.2_0 main@%shadow.mem.0.0_0))
         (=> (and main@_bb16_0 main@_bb15_0)
             (= main@%shadow.mem.8.1_0 main@%shadow.mem.8.0_0))
         (=> (and main@_bb16_0 main@_bb15_0) (= main@%.1.i_0 0))
         (=> (and main@_bb16_0 main@_bb15_0)
             (= main@%shadow.mem.0.2_1 main@%shadow.mem.0.2_0))
         (=> (and main@_bb16_0 main@_bb15_0)
             (= main@%shadow.mem.8.1_1 main@%shadow.mem.8.1_0))
         (=> (and main@_bb16_0 main@_bb15_0) (= main@%.1.i_1 main@%.1.i_0))
         main@_bb16_0)
    (main@_bb16 @a_0 main@%.1.i_1 main@%shadow.mem.0.2_1 main@%shadow.mem.8.1_1)))
(rule (let ((a!1 (=> main@_bb17_0
               (= main@%_17_0 (+ @a_0 (* 0 400000) (* main@%.1.i_0 4)))))
      (a!2 (= main@%_19_0 (+ (+ main@%_18_0 (* 0 8)) 4)))
      (a!3 (= main@%_23_0 (+ (+ main@%_18_0 (* 0 8)) 0)))
      (a!4 (=> main@_bb18_0 (= main@%_25_0 (not (= main@%_24_0 0))))))
(let ((a!5 (and (main@_bb16 @a_0
                            main@%.1.i_0
                            main@%shadow.mem.0.2_0
                            main@%shadow.mem.8.1_0)
                true
                (= main@%_15_0 (< main@%.1.i_0 100000))
                main@%_15_0
                (=> main@_bb17_0 (and main@_bb17_0 main@_bb16_0))
                a!1
                (=> main@_bb17_0 (or (<= @a_0 0) (> main@%_17_0 0)))
                (=> main@_bb17_0 (> @a_0 0))
                (=> main@_bb17_0
                    (= main@%_18_0 (select main@%shadow.mem.8.1_0 main@%_17_0)))
                (=> main@_bb17_0 a!2)
                (=> main@_bb17_0 (or (<= main@%_18_0 0) (> main@%_19_0 0)))
                (=> main@_bb17_0 (> main@%_18_0 0))
                (=> main@_bb17_0
                    (= main@%_20_0 (select main@%shadow.mem.0.2_0 main@%_19_0)))
                (=> main@_bb17_0 (= main@%_21_0 (= main@%_20_0 1)))
                (=> main@_bb18_0 (and main@_bb18_0 main@_bb17_0))
                (=> (and main@_bb18_0 main@_bb17_0) main@%_21_0)
                (=> main@_bb18_0 a!3)
                (=> main@_bb18_0 (or (<= main@%_18_0 0) (> main@%_23_0 0)))
                (=> main@_bb18_0
                    (= main@%_24_0 (select main@%shadow.mem.0.2_0 main@%_23_0)))
                a!4
                (=> main@_bb18_0 (= main@%_26_0 (ite main@%_25_0 1 0)))
                (=> main@postcall_0 (and main@postcall_0 main@_bb18_0))
                (=> (and main@postcall_0 main@_bb18_0) main@%_27_0)
                (__VERIFIER_assert
                  main@postcall_0
                  false
                  false
                  main@%shadow.mem.0.2_0
                  main@%sh6_0
                  main@%shadow.mem.8.1_0
                  main@%sh7_0
                  main@%_26_0)
                (=> |tuple(main@_bb17_0, main@_bb19_0)| main@_bb17_0)
                (=> main@_bb19_0
                    (or (and main@_bb19_0 main@postcall_0)
                        |tuple(main@_bb17_0, main@_bb19_0)|))
                (=> |tuple(main@_bb17_0, main@_bb19_0)| (not main@%_21_0))
                (=> (and main@_bb19_0 main@postcall_0)
                    (= main@%shadow.mem.0.3_0 main@%sh6_0))
                (=> (and main@_bb19_0 main@postcall_0)
                    (= main@%shadow.mem.8.2_0 main@%sh7_0))
                (=> |tuple(main@_bb17_0, main@_bb19_0)|
                    (= main@%shadow.mem.0.3_1 main@%shadow.mem.0.2_0))
                (=> |tuple(main@_bb17_0, main@_bb19_0)|
                    (= main@%shadow.mem.8.2_1 main@%shadow.mem.8.1_0))
                (=> (and main@_bb19_0 main@postcall_0)
                    (= main@%shadow.mem.0.3_2 main@%shadow.mem.0.3_0))
                (=> (and main@_bb19_0 main@postcall_0)
                    (= main@%shadow.mem.8.2_2 main@%shadow.mem.8.2_0))
                (=> |tuple(main@_bb17_0, main@_bb19_0)|
                    (= main@%shadow.mem.0.3_2 main@%shadow.mem.0.3_1))
                (=> |tuple(main@_bb17_0, main@_bb19_0)|
                    (= main@%shadow.mem.8.2_2 main@%shadow.mem.8.2_1))
                (=> main@_bb19_0 (= main@%_29_0 (+ main@%.1.i_0 1)))
                (=> main@_bb16_1 (and main@_bb16_1 main@_bb19_0))
                (=> (and main@_bb16_1 main@_bb19_0)
                    (= main@%shadow.mem.0.2_1 main@%shadow.mem.0.3_2))
                (=> (and main@_bb16_1 main@_bb19_0)
                    (= main@%shadow.mem.8.1_1 main@%shadow.mem.8.2_2))
                (=> (and main@_bb16_1 main@_bb19_0)
                    (= main@%.1.i_1 main@%_29_0))
                (=> (and main@_bb16_1 main@_bb19_0)
                    (= main@%shadow.mem.0.2_2 main@%shadow.mem.0.2_1))
                (=> (and main@_bb16_1 main@_bb19_0)
                    (= main@%shadow.mem.8.1_2 main@%shadow.mem.8.1_1))
                (=> (and main@_bb16_1 main@_bb19_0)
                    (= main@%.1.i_2 main@%.1.i_1))
                main@_bb16_1)))
  (=> a!5
      (main@_bb16 @a_0
                  main@%.1.i_2
                  main@%shadow.mem.0.2_2
                  main@%shadow.mem.8.1_2)))))
(rule (let ((a!1 (=> main@_bb17_0
               (= main@%_17_0 (+ @a_0 (* 0 400000) (* main@%.1.i_0 4)))))
      (a!2 (= main@%_19_0 (+ (+ main@%_18_0 (* 0 8)) 4)))
      (a!3 (= main@%_23_0 (+ (+ main@%_18_0 (* 0 8)) 0)))
      (a!4 (=> main@_bb18_0 (= main@%_25_0 (not (= main@%_24_0 0))))))
(let ((a!5 (and (main@_bb16 @a_0
                            main@%.1.i_0
                            main@%shadow.mem.0.2_0
                            main@%shadow.mem.8.1_0)
                true
                (= main@%_15_0 (< main@%.1.i_0 100000))
                main@%_15_0
                (=> main@_bb17_0 (and main@_bb17_0 main@_bb16_0))
                a!1
                (=> main@_bb17_0 (or (<= @a_0 0) (> main@%_17_0 0)))
                (=> main@_bb17_0 (> @a_0 0))
                (=> main@_bb17_0
                    (= main@%_18_0 (select main@%shadow.mem.8.1_0 main@%_17_0)))
                (=> main@_bb17_0 a!2)
                (=> main@_bb17_0 (or (<= main@%_18_0 0) (> main@%_19_0 0)))
                (=> main@_bb17_0 (> main@%_18_0 0))
                (=> main@_bb17_0
                    (= main@%_20_0 (select main@%shadow.mem.0.2_0 main@%_19_0)))
                (=> main@_bb17_0 (= main@%_21_0 (= main@%_20_0 1)))
                (=> main@_bb18_0 (and main@_bb18_0 main@_bb17_0))
                (=> (and main@_bb18_0 main@_bb17_0) main@%_21_0)
                (=> main@_bb18_0 a!3)
                (=> main@_bb18_0 (or (<= main@%_18_0 0) (> main@%_23_0 0)))
                (=> main@_bb18_0
                    (= main@%_24_0 (select main@%shadow.mem.0.2_0 main@%_23_0)))
                a!4
                (=> main@_bb18_0 (= main@%_26_0 (ite main@%_25_0 1 0)))
                (=> main@precall_0 (and main@precall_0 main@_bb18_0))
                (=> (and main@precall_0 main@_bb18_0) (not main@%_27_0))
                (=> main@__VERIFIER_assert_0
                    (and main@__VERIFIER_assert_0 main@precall_0))
                (=> main@__VERIFIER_assert_0 (= main@%_30_0 (= main@%_26_0 0)))
                (=> main@__VERIFIER_assert_0 main@%_30_0)
                (=> main@_bb20_0 (and main@_bb20_0 main@__VERIFIER_assert_0))
                (=> main@verifier.error_0
                    (and main@verifier.error_0 main@_bb20_0))
                (=> main@verifier.error.split_0
                    (and main@verifier.error.split_0 main@verifier.error_0))
                main@verifier.error.split_0)))
  (=> a!5 main@verifier.error.split))))
(query main@verifier.error.split)

